&CONTROL
   calculation      = 'scf'
   tstress          = .true.
   tprnfor          = .true.
  outdir = './outdir/outdir_0'
   prefix           = 'si'
   etot_conv_thr    = 1e-06
   forc_conv_thr    = 1e-06
   disk_io          = 'low'
   pseudo_dir       = '../pseudo'
/
&SYSTEM
   ecutwfc          = 60
   ecutrho          = 480
   occupations      = 'fixed'
   ntyp             = 1
  nat = 128
   ibrav            = 0
/
&ELECTRONS
   conv_thr         = 1e-10
   mixing_beta      = 0.7
/
&IONS
/
&CELL
/
&FCP
/
&RISM
/
ATOMIC_SPECIES
Si 28.085 Si.pbe-n-kjpaw_psl.1.0.0.UPF


ATOMIC_POSITIONS crystal
Si               0.1875               0.1875               0.1875
Si                0.125                0.125                0.125
Si               0.4375               0.1875               0.1875
Si                0.375                0.125                0.125
Si               0.6875               0.1875               0.1875
Si                0.625                0.125                0.125
Si               0.9375               0.1875               0.1875
Si                0.875                0.125                0.125
Si               0.1875               0.4375               0.1875
Si                0.125                0.375                0.125
Si               0.4375               0.4375               0.1875
Si                0.375                0.375                0.125
Si               0.6875               0.4375               0.1875
Si                0.625                0.375                0.125
Si               0.9375               0.4375               0.1875
Si                0.875                0.375                0.125
Si               0.1875               0.6875               0.1875
Si                0.125                0.625                0.125
Si               0.4375               0.6875               0.1875
Si                0.375                0.625                0.125
Si               0.6875               0.6875               0.1875
Si                0.625                0.625                0.125
Si               0.9375               0.6875               0.1875
Si                0.875                0.625                0.125
Si               0.1875               0.9375               0.1875
Si                0.125                0.875                0.125
Si               0.4375               0.9375               0.1875
Si                0.375                0.875                0.125
Si               0.6875               0.9375               0.1875
Si                0.625                0.875                0.125
Si               0.9375               0.9375               0.1875
Si                0.875                0.875                0.125
Si               0.1875               0.1875               0.4375
Si                0.125                0.125                0.375
Si               0.4375               0.1875               0.4375
Si                0.375                0.125                0.375
Si               0.6875               0.1875               0.4375
Si                0.625                0.125                0.375
Si               0.9375               0.1875               0.4375
Si                0.875                0.125                0.375
Si               0.1875               0.4375               0.4375
Si                0.125                0.375                0.375
Si               0.4375               0.4375               0.4375
Si                0.375                0.375                0.375
Si               0.6875               0.4375               0.4375
Si                0.625                0.375                0.375
Si               0.9375               0.4375               0.4375
Si                0.875                0.375                0.375
Si               0.1875               0.6875               0.4375
Si                0.125                0.625                0.375
Si               0.4375               0.6875               0.4375
Si                0.375                0.625                0.375
Si               0.6875               0.6875               0.4375
Si                0.625                0.625                0.375
Si               0.9375               0.6875               0.4375
Si                0.875                0.625                0.375
Si               0.1875               0.9375               0.4375
Si                0.125                0.875                0.375
Si               0.4375               0.9375               0.4375
Si                0.375                0.875                0.375
Si               0.6875               0.9375               0.4375
Si                0.625                0.875                0.375
Si               0.9375               0.9375               0.4375
Si                0.875                0.875                0.375
Si               0.1875               0.1875               0.6875
Si                0.125                0.125                0.625
Si               0.4375               0.1875               0.6875
Si                0.375                0.125                0.625
Si               0.6875               0.1875               0.6875
Si                0.625                0.125                0.625
Si               0.9375               0.1875               0.6875
Si                0.875                0.125                0.625
Si               0.1875               0.4375               0.6875
Si                0.125                0.375                0.625
Si               0.4375               0.4375               0.6875
Si                0.375                0.375                0.625
Si               0.6875               0.4375               0.6875
Si                0.625                0.375                0.625
Si               0.9375               0.4375               0.6875
Si                0.875                0.375                0.625
Si               0.1875               0.6875               0.6875
Si                0.125                0.625                0.625
Si               0.4375               0.6875               0.6875
Si                0.375                0.625                0.625
Si               0.6875               0.6875               0.6875
Si                0.625                0.625                0.625
Si               0.9375               0.6875               0.6875
Si                0.875                0.625                0.625
Si               0.1875               0.9375               0.6875
Si                0.125                0.875                0.625
Si               0.4375               0.9375               0.6875
Si                0.375                0.875                0.625
Si               0.6875               0.9375               0.6875
Si                0.625                0.875                0.625
Si               0.9375               0.9375               0.6875
Si                0.875                0.875                0.625
Si               0.1875               0.1875               0.9375
Si                0.125                0.125                0.875
Si               0.4375               0.1875               0.9375
Si                0.375                0.125                0.875
Si               0.6875               0.1875               0.9375
Si                0.625                0.125                0.875
Si               0.9375               0.1875               0.9375
Si                0.875                0.125                0.875
Si               0.1875               0.4375               0.9375
Si                0.125                0.375                0.875
Si               0.4375               0.4375               0.9375
Si                0.375                0.375                0.875
Si               0.6875               0.4375               0.9375
Si                0.625                0.375                0.875
Si               0.9375               0.4375               0.9375
Si                0.875                0.375                0.875
Si               0.1875               0.6875               0.9375
Si                0.125                0.625                0.875
Si               0.4375               0.6875               0.9375
Si                0.375                0.625                0.875
Si               0.6875               0.6875               0.9375
Si                0.625                0.625                0.875
Si               0.9375               0.6875               0.9375
Si                0.875                0.625                0.875
Si               0.1875               0.9375               0.9375
Si                0.125                0.875                0.875
Si               0.4375               0.9375               0.9375
Si                0.375                0.875                0.875
Si               0.6875               0.9375               0.9375
Si                0.625                0.875                0.875
Si               0.9375               0.9375               0.9375
Si                0.875                0.875                0.875

K_POINTS gamma

CELL_PARAMETERS angstrom
                  -0     10.9279785018276     10.9279785018276
    10.9279785018276                   -0     10.9279785018276
    10.9279785018276     10.9279785018276                    0
