&control
calculation = 'scf'
prefix = 'sic'
outdir = './outdir/outdir_0'
pseudo_dir = '../pseudo'
etot_conv_thr = 1.0D-6
forc_conv_thr = 1.0D-6
tstress = .true.
tprnfor = .true.
/
&system
ibrav=0
nat = 128
ntyp=2
ecutwfc=55
ecutrho=500
occupations = 'fixed'
/
&electrons
mixing_beta = 0.7
conv_thr=1e-10
/
ATOMIC_SPECIES
Si  28.0855  Si.pbe-n-rrkjus_psl.1.0.0.UPF
C   12.0107  C.pbe-n-rrkjus_psl.1.0.0.UPF
ATOMIC_POSITIONS crystal
Si                    0                    0                    0
C              -0.0625               0.1875              -0.0625
Si                 0.25                    0                    0
C               0.1875               0.1875              -0.0625
Si                  0.5                    0                    0
C               0.4375               0.1875              -0.0625
Si                 0.75                    0                    0
C               0.6875               0.1875              -0.0625
Si                    0                 0.25                    0
C              -0.0625               0.4375              -0.0625
Si                 0.25                 0.25                    0
C               0.1875               0.4375              -0.0625
Si                  0.5                 0.25                    0
C               0.4375               0.4375              -0.0625
Si                 0.75                 0.25                    0
C               0.6875               0.4375              -0.0625
Si                    0                  0.5                    0
C              -0.0625               0.6875              -0.0625
Si                 0.25                  0.5                    0
C               0.1875               0.6875              -0.0625
Si                  0.5                  0.5                    0
C               0.4375               0.6875              -0.0625
Si                 0.75                  0.5                    0
C               0.6875               0.6875              -0.0625
Si                    0                 0.75                    0
C              -0.0625               0.9375              -0.0625
Si                 0.25                 0.75                    0
C               0.1875               0.9375              -0.0625
Si                  0.5                 0.75                    0
C               0.4375               0.9375              -0.0625
Si                 0.75                 0.75                    0
C               0.6875               0.9375              -0.0625
Si                    0                    0                 0.25
C              -0.0625               0.1875               0.1875
Si                 0.25                    0                 0.25
C               0.1875               0.1875               0.1875
Si                  0.5                    0                 0.25
C               0.4375               0.1875               0.1875
Si                 0.75                    0                 0.25
C               0.6875               0.1875               0.1875
Si                    0                 0.25                 0.25
C              -0.0625               0.4375               0.1875
Si                 0.25                 0.25                 0.25
C               0.1875               0.4375               0.1875
Si                  0.5                 0.25                 0.25
C               0.4375               0.4375               0.1875
Si                 0.75                 0.25                 0.25
C               0.6875               0.4375               0.1875
Si                    0                  0.5                 0.25
C              -0.0625               0.6875               0.1875
Si                 0.25                  0.5                 0.25
C               0.1875               0.6875               0.1875
Si                  0.5                  0.5                 0.25
C               0.4375               0.6875               0.1875
Si                 0.75                  0.5                 0.25
C               0.6875               0.6875               0.1875
Si                    0                 0.75                 0.25
C              -0.0625               0.9375               0.1875
Si                 0.25                 0.75                 0.25
C               0.1875               0.9375               0.1875
Si                  0.5                 0.75                 0.25
C               0.4375               0.9375               0.1875
Si                 0.75                 0.75                 0.25
C               0.6875               0.9375               0.1875
Si                    0                    0                  0.5
C              -0.0625               0.1875               0.4375
Si                 0.25                    0                  0.5
C               0.1875               0.1875               0.4375
Si                  0.5                    0                  0.5
C               0.4375               0.1875               0.4375
Si                 0.75                    0                  0.5
C               0.6875               0.1875               0.4375
Si                    0                 0.25                  0.5
C              -0.0625               0.4375               0.4375
Si                 0.25                 0.25                  0.5
C               0.1875               0.4375               0.4375
Si                  0.5                 0.25                  0.5
C               0.4375               0.4375               0.4375
Si                 0.75                 0.25                  0.5
C               0.6875               0.4375               0.4375
Si                    0                  0.5                  0.5
C              -0.0625               0.6875               0.4375
Si                 0.25                  0.5                  0.5
C               0.1875               0.6875               0.4375
Si                  0.5                  0.5                  0.5
C               0.4375               0.6875               0.4375
Si                 0.75                  0.5                  0.5
C               0.6875               0.6875               0.4375
Si                    0                 0.75                  0.5
C              -0.0625               0.9375               0.4375
Si                 0.25                 0.75                  0.5
C               0.1875               0.9375               0.4375
Si                  0.5                 0.75                  0.5
C               0.4375               0.9375               0.4375
Si                 0.75                 0.75                  0.5
C               0.6875               0.9375               0.4375
Si                    0                    0                 0.75
C              -0.0625               0.1875               0.6875
Si                 0.25                    0                 0.75
C               0.1875               0.1875               0.6875
Si                  0.5                    0                 0.75
C               0.4375               0.1875               0.6875
Si                 0.75                    0                 0.75
C               0.6875               0.1875               0.6875
Si                    0                 0.25                 0.75
C              -0.0625               0.4375               0.6875
Si                 0.25                 0.25                 0.75
C               0.1875               0.4375               0.6875
Si                  0.5                 0.25                 0.75
C               0.4375               0.4375               0.6875
Si                 0.75                 0.25                 0.75
C               0.6875               0.4375               0.6875
Si                    0                  0.5                 0.75
C              -0.0625               0.6875               0.6875
Si                 0.25                  0.5                 0.75
C               0.1875               0.6875               0.6875
Si                  0.5                  0.5                 0.75
C               0.4375               0.6875               0.6875
Si                 0.75                  0.5                 0.75
C               0.6875               0.6875               0.6875
Si                    0                 0.75                 0.75
C              -0.0625               0.9375               0.6875
Si                 0.25                 0.75                 0.75
C               0.1875               0.9375               0.6875
Si                  0.5                 0.75                 0.75
C               0.4375               0.9375               0.6875
Si                 0.75                 0.75                 0.75
C               0.6875               0.9375               0.6875

K_POINTS gamma

CELL_PARAMETERS angstrom
   -8.75900046299546                    0     8.75900046299546
                   0     8.75900046299546     8.75900046299546
   -8.75900046299546     8.75900046299546                    0
