&CONTROL
   calculation      = 'scf'
   tstress          = .true.
   tprnfor          = .true.
   outdir           = './outdir'
   prefix           = 'si'
   etot_conv_thr    = 1e-06
   forc_conv_thr    = 1e-06
   disk_io          = 'low'
   pseudo_dir       = '../pseudo'
/
&SYSTEM
   ecutwfc          = 60
   ecutrho          = 480
   occupations      = 'fixed'
   ntyp             = 1
   nat              = 2
   ibrav            = 0
/
&ELECTRONS
   conv_thr         = 1e-10
   mixing_beta      = 0.7
/
&IONS
/
&CELL
/
&FCP
/
&RISM
/
ATOMIC_SPECIES
Si 28.085 Si.pbe-n-kjpaw_psl.1.0.0.UPF

K_POINTS automatic
12 12 12  0 0 0

CELL_PARAMETERS angstrom
-0.00000000000000 2.73199462545691 2.73199462545691
2.73199462545691 -0.00000000000000 2.73199462545691
2.73199462545691 2.73199462545691 0.00000000000000

ATOMIC_POSITIONS crystal
Si 0.7500000000 0.7500000000 0.7500000000  
Si 0.5000000000 0.5000000000 0.5000000000  

